% seed = 9223237

mint = 41;
% maxt = 119;

nActs = 22;
dur = [0,6,4,1,3,3,4,8,7,9,10,10,10,5,6,2,7,8,5,10,1,0];

nSkills = 4;
sreq = [| 0,0,0,0,
	| 0,2,0,2,
	| 3,0,3,0,
	| 0,0,2,2,
	| 2,2,0,0,
	| 0,1,2,0,
	| 0,3,0,1,
	| 0,3,0,1,
	| 1,2,0,0,
	| 1,2,0,0,
	| 0,0,1,3,
	| 2,0,3,0,
	| 1,0,3,0,
	| 0,2,1,0,
	| 2,0,3,0,
	| 1,3,0,0,
	| 1,3,0,0,
	| 2,1,0,0,
	| 0,2,1,0,
	| 3,3,0,0,
	| 0,2,2,0,
	| 0,0,0,0, |];

nResources = 10;
mastery = [| true,false,false,true,
	| false,true,false,true,
	| false,true,true,true,
	| true,true,false,true,
	| true,false,true,true,
	| false,false,false,true,
	| true,false,true,true,
	| false,true,false,false,
	| true,false,true,false,
	| true,false,true,false, |];

nPrecs = 37;
pred = [1,1,1,2,2,3,3,3,4,5,5,5,6,6,7,7,8,8,9,9,10,10,11,12,12,13,14,14,15,15,16,16,17,18,19,20,21];
succ = [2,3,4,10,8,9,20,12,5,18,6,16,14,7,11,15,18,15,10,19,11,16,13,17,13,21,20,15,17,21,17,21,19,19,22,22,22];

nUnrels = 92;
unpred = [2,2,2,2,2,2,2,2,2,3,3,3,3,3,3,3,3,4,4,4,4,5,5,5,5,6,6,6,6,6,6,7,7,7,7,7,7,7,7,8,8,8,8,8,8,8,8,9,9,9,9,9,10,10,10,10,10,11,11,11,11,11,11,11,11,12,12,12,12,12,13,13,13,13,13,13,13,14,14,15,15,15,16,16,17,17,17,18,18,19,19,20];
unsucc = [3,4,5,6,7,9,12,14,20,4,5,6,7,8,14,15,18,8,9,10,12,8,9,10,12,8,9,10,12,16,18,8,9,10,12,14,16,18,20,9,10,11,12,13,14,16,20,12,14,15,18,20,12,14,15,18,20,12,14,15,16,17,18,19,20,14,15,16,18,20,14,15,16,17,18,19,20,16,18,16,18,20,18,20,18,20,21,20,21,20,21,21];

USEFUL_RES = [{},
	{1,2,3,4,5,6,7,8},
	{1,3,4,5,7,9,10},
	{1,2,3,4,5,6,7,9,10},
	{1,2,3,4,5,7,8,9,10},
	{2,3,4,5,7,8,9,10},
	{1,2,3,4,5,6,7,8},
	{1,2,3,4,5,6,7,8},
	{1,2,3,4,5,7,8,9,10},
	{1,2,3,4,5,7,8,9,10},
	{1,2,3,4,5,6,7,9,10},
	{1,3,4,5,7,9,10},
	{1,3,4,5,7,9,10},
	{2,3,4,5,7,8,9,10},
	{1,3,4,5,7,9,10},
	{1,2,3,4,5,7,8,9,10},
	{1,2,3,4,5,7,8,9,10},
	{1,2,3,4,5,7,8,9,10},
	{2,3,4,5,7,8,9,10},
	{1,2,3,4,5,7,8,9,10},
	{2,3,4,5,7,8,9,10},
	{}];

POTENTIAL_ACT = [{2,3,4,5,7,8,9,10,11,12,13,15,16,17,18,20},
	{2,4,5,6,7,8,9,10,11,14,16,17,18,19,20,21},
	{2,3,4,5,6,7,8,9,10,11,12,13,14,15,16,17,18,19,20,21},
	{2,3,4,5,6,7,8,9,10,11,12,13,14,15,16,17,18,19,20,21},
	{2,3,4,5,6,7,8,9,10,11,12,13,14,15,16,17,18,19,20,21},
	{2,4,7,8,11},
	{2,3,4,5,6,7,8,9,10,11,12,13,14,15,16,17,18,19,20,21},
	{2,5,6,7,8,9,10,14,16,17,18,19,20,21},
	{3,4,5,6,9,10,11,12,13,14,15,16,17,18,19,20,21},
	{3,4,5,6,9,10,11,12,13,14,15,16,17,18,19,20,21}];
